n_trains = 40;
n_tracks = 10;
tracks = [{1, 2, 3, 4, 5},{6, 7, 8, 9, 10},{11, 12, 13, 14, 15},{16, 17, 18, 19, 20},{21, 22},{23, 24, 25, 26, 27, 28, 29, 30},{31, 32, 33},{34, 35, 36},{37, 38, 39},{40}];
arrival_order = [1, 2, 3, 4, 5, 6, 7, 8, 9, 10, 11, 12, 13, 14, 15, 16, 17, 18, 19, 20, 21, 22, 23, 24, 25, 26, 27, 28, 29, 30, 31, 32, 33, 34, 35, 36, 37, 38, 39, 40];
departure_order = [39, 8, 22, 5, 32, 2, 38, 12, 15, 6, 19, 17, 23, 33, 28, 37, 9, 34, 10, 20, 21, 7, 13, 31, 24, 40, 11, 3, 30, 27, 18, 16, 36, 14, 26, 4, 1, 35, 29, 25];
